p cnf 430 1488
-191 62 0
-191 -59 0
-191 -139 0
-191 -56 0
-191 -186 0
191 -62 59 139 56 186 0
-192 82 0
-192 -8 0
-192 -135 0
-192 72 0
-192 -18 0
192 -82 8 135 -72 18 0
-193 132 0
-193 -48 0
-193 -178 0
-193 129 0
-193 10 0
193 -132 48 178 -129 -10 0
-194 25 0
-194 -16 0
-194 -126 0
-194 142 0
-194 -53 0
194 -25 16 126 -142 53 0
-195 50 0
-195 -76 0
-195 -98 0
-195 31 0
-195 -69 0
195 -50 76 98 -31 69 0
191 192 193 194 195 0
-196 -60 0
-196 -91 0
-196 73 0
-196 149 0
-196 -152 0
196 60 91 -73 -149 152 0
-197 -149 0
-197 67 0
-197 52 0
-197 99 0
-197 171 0
197 149 -67 -52 -99 -171 0
-198 -180 0
-198 -126 0
-198 77 0
-198 177 0
-198 145 0
198 180 126 -77 -177 -145 0
-199 69 0
-199 60 0
-199 16 0
-199 92 0
-199 -106 0
199 -69 -60 -16 -92 106 0
-200 115 0
-200 -58 0
-200 62 0
-200 188 0
-200 -72 0
200 -115 58 -62 -188 72 0
196 197 198 199 200 0
-201 -114 0
-201 -76 0
-201 68 0
-201 -182 0
-201 -179 0
201 114 76 -68 182 179 0
-202 149 0
-202 -179 0
-202 173 0
-202 125 0
-202 -115 0
202 -149 179 -173 -125 115 0
-203 83 0
-203 125 0
-203 55 0
-203 18 0
-203 -89 0
203 -83 -125 -55 -18 89 0
-204 142 0
-204 128 0
-204 116 0
-204 81 0
-204 -119 0
204 -142 -128 -116 -81 119 0
-205 -94 0
-205 186 0
-205 120 0
-205 36 0
-205 47 0
205 94 -186 -120 -36 -47 0
201 202 203 204 205 0
-206 -92 0
-206 -100 0
-206 -188 0
-206 -151 0
-206 175 0
206 92 100 188 151 -175 0
-207 43 0
-207 -37 0
-207 48 0
-207 75 0
-207 61 0
207 -43 37 -48 -75 -61 0
-208 68 0
-208 -114 0
-208 153 0
-208 31 0
-208 -122 0
208 -68 114 -153 -31 122 0
-209 -69 0
-209 -86 0
-209 121 0
-209 -40 0
-209 -109 0
209 69 86 -121 40 109 0
-210 -47 0
-210 138 0
-210 36 0
-210 8 0
-210 59 0
210 47 -138 -36 -8 -59 0
206 207 208 209 210 0
-211 -36 0
-211 23 0
-211 127 0
-211 83 0
-211 -30 0
211 36 -23 -127 -83 30 0
-212 105 0
-212 38 0
-212 -26 0
-212 31 0
-212 -89 0
212 -105 -38 26 -31 89 0
-213 107 0
-213 -128 0
-213 154 0
-213 87 0
-213 90 0
213 -107 128 -154 -87 -90 0
-214 -37 0
-214 162 0
-214 152 0
-214 -91 0
-214 143 0
214 37 -162 -152 91 -143 0
-215 -54 0
-215 -117 0
-215 -71 0
-215 94 0
-215 -43 0
215 54 117 71 -94 43 0
211 212 213 214 215 0
-216 181 0
-216 17 0
-216 86 0
-216 143 0
-216 27 0
216 -181 -17 -86 -143 -27 0
-217 -128 0
-217 51 0
-217 -58 0
-217 -72 0
-217 140 0
217 128 -51 58 72 -140 0
-218 -166 0
-218 -56 0
-218 -49 0
-218 -37 0
-218 -4 0
218 166 56 49 37 4 0
-219 -154 0
-219 -129 0
-219 49 0
-219 54 0
-219 -5 0
219 154 129 -49 -54 5 0
-220 59 0
-220 103 0
-220 164 0
-220 140 0
-220 53 0
220 -59 -103 -164 -140 -53 0
216 217 218 219 220 0
-221 -145 0
-221 -147 0
-221 -137 0
-221 -10 0
-221 -166 0
221 145 147 137 10 166 0
-222 -34 0
-222 119 0
-222 44 0
-222 90 0
-222 76 0
222 34 -119 -44 -90 -76 0
-223 70 0
-223 -190 0
-223 -127 0
-223 22 0
-223 -115 0
223 -70 190 127 -22 115 0
-224 139 0
-224 179 0
-224 58 0
-224 -172 0
-224 136 0
224 -139 -179 -58 172 -136 0
-225 128 0
-225 190 0
-225 50 0
-225 102 0
-225 84 0
225 -128 -190 -50 -102 -84 0
221 222 223 224 225 0
-226 -144 0
-226 103 0
-226 -39 0
-226 -165 0
-226 -117 0
226 144 -103 39 165 117 0
-227 -132 0
-227 -42 0
-227 76 0
-227 -8 0
-227 -39 0
227 132 42 -76 8 39 0
-228 92 0
-228 -17 0
-228 38 0
-228 -90 0
-228 67 0
228 -92 17 -38 90 -67 0
-229 108 0
-229 -58 0
-229 -172 0
-229 -155 0
-229 177 0
229 -108 58 172 155 -177 0
-230 83 0
-230 -175 0
-230 154 0
-230 -93 0
-230 64 0
230 -83 175 -154 93 -64 0
226 227 228 229 230 0
-231 -13 0
-231 -61 0
-231 141 0
-231 11 0
-231 10 0
231 13 61 -141 -11 -10 0
-232 142 0
-232 146 0
-232 6 0
-232 70 0
-232 37 0
232 -142 -146 -6 -70 -37 0
-233 34 0
-233 -155 0
-233 -98 0
-233 38 0
-233 -33 0
233 -34 155 98 -38 33 0
-234 -167 0
-234 118 0
-234 13 0
-234 78 0
-234 -44 0
234 167 -118 -13 -78 44 0
-235 -27 0
-235 55 0
-235 127 0
-235 171 0
-235 156 0
235 27 -55 -127 -171 -156 0
231 232 233 234 235 0
-236 123 0
-236 -34 0
-236 -190 0
-236 -183 0
-236 107 0
236 -123 34 190 183 -107 0
-237 -90 0
-237 -41 0
-237 -57 0
-237 25 0
-237 -182 0
237 90 41 57 -25 182 0
-238 102 0
-238 -68 0
-238 141 0
-238 61 0
-238 62 0
238 -102 68 -141 -61 -62 0
-239 -36 0
-239 50 0
-239 -107 0
-239 -61 0
-239 39 0
239 36 -50 107 61 -39 0
-240 9 0
-240 -46 0
-240 143 0
-240 -169 0
-240 -187 0
240 -9 46 -143 169 187 0
236 237 238 239 240 0
-241 -29 0
-241 174 0
-241 131 0
-241 -138 0
-241 83 0
241 29 -174 -131 138 -83 0
-242 -159 0
-242 -103 0
-242 145 0
-242 127 0
-242 -146 0
242 159 103 -145 -127 146 0
-243 -71 0
-243 26 0
-243 189 0
-243 102 0
-243 112 0
243 71 -26 -189 -102 -112 0
-244 -98 0
-244 -36 0
-244 179 0
-244 140 0
-244 189 0
244 98 36 -179 -140 -189 0
-245 -143 0
-245 98 0
-245 -45 0
-245 132 0
-245 181 0
245 143 -98 45 -132 -181 0
241 242 243 244 245 0
-246 72 0
-246 131 0
-246 -118 0
-246 -41 0
-246 -125 0
246 -72 -131 118 41 125 0
-247 5 0
-247 -92 0
-247 -118 0
-247 -187 0
-247 -16 0
247 -5 92 118 187 16 0
-248 133 0
-248 -91 0
-248 -164 0
-248 188 0
-248 76 0
248 -133 91 164 -188 -76 0
-249 133 0
-249 119 0
-249 -68 0
-249 46 0
-249 -189 0
249 -133 -119 68 -46 189 0
-250 27 0
-250 -140 0
-250 179 0
-250 -96 0
-250 -159 0
250 -27 140 -179 96 159 0
246 247 248 249 250 0
-251 186 0
-251 -121 0
-251 -127 0
-251 -188 0
-251 -74 0
251 -186 121 127 188 74 0
-252 -45 0
-252 -156 0
-252 -185 0
-252 -157 0
-252 50 0
252 45 156 185 157 -50 0
-253 178 0
-253 152 0
-253 -188 0
-253 71 0
-253 -87 0
253 -178 -152 188 -71 87 0
-254 -75 0
-254 130 0
-254 19 0
-254 33 0
-254 49 0
254 75 -130 -19 -33 -49 0
-255 45 0
-255 -171 0
-255 27 0
-255 -188 0
-255 -87 0
255 -45 171 -27 188 87 0
251 252 253 254 255 0
-256 185 0
-256 -166 0
-256 -130 0
-256 -66 0
-256 -12 0
256 -185 166 130 66 12 0
-257 43 0
-257 102 0
-257 171 0
-257 61 0
-257 -111 0
257 -43 -102 -171 -61 111 0
-258 16 0
-258 169 0
-258 122 0
-258 -174 0
-258 -184 0
258 -16 -169 -122 174 184 0
-259 -88 0
-259 37 0
-259 77 0
-259 72 0
-259 -166 0
259 88 -37 -77 -72 166 0
-260 -105 0
-260 -2 0
-260 10 0
-260 -91 0
-260 -175 0
260 105 2 -10 91 175 0
256 257 258 259 260 0
-261 109 0
-261 -82 0
-261 -42 0
-261 -180 0
-261 104 0
261 -109 82 42 180 -104 0
-262 -3 0
-262 -8 0
-262 -57 0
-262 -170 0
-262 -186 0
262 3 8 57 170 186 0
-263 176 0
-263 92 0
-263 47 0
-263 -145 0
-263 52 0
263 -176 -92 -47 145 -52 0
-264 16 0
-264 -157 0
-264 -3 0
-264 104 0
-264 35 0
264 -16 157 3 -104 -35 0
-265 -52 0
-265 118 0
-265 31 0
-265 184 0
-265 -17 0
265 52 -118 -31 -184 17 0
261 262 263 264 265 0
-266 -169 0
-266 -96 0
-266 -177 0
-266 162 0
-266 -88 0
266 169 96 177 -162 88 0
-267 32 0
-267 40 0
-267 52 0
-267 -47 0
-267 143 0
267 -32 -40 -52 47 -143 0
-268 -172 0
-268 -189 0
-268 123 0
-268 143 0
-268 185 0
268 172 189 -123 -143 -185 0
-269 -71 0
-269 -154 0
-269 -44 0
-269 -18 0
-269 -143 0
269 71 154 44 18 143 0
-270 -85 0
-270 -128 0
-270 108 0
-270 -36 0
-270 106 0
270 85 128 -108 36 -106 0
266 267 268 269 270 0
-271 123 0
-271 187 0
-271 -163 0
-271 -111 0
-271 11 0
271 -123 -187 163 111 -11 0
-272 37 0
-272 -153 0
-272 -38 0
-272 139 0
-272 -152 0
272 -37 153 38 -139 152 0
-273 -106 0
-273 86 0
-273 -124 0
-273 -139 0
-273 -7 0
273 106 -86 124 139 7 0
-274 6 0
-274 37 0
-274 -161 0
-274 15 0
-274 59 0
274 -6 -37 161 -15 -59 0
-275 38 0
-275 -166 0
-275 -117 0
-275 136 0
-275 -165 0
275 -38 166 117 -136 165 0
271 272 273 274 275 0
-276 20 0
-276 54 0
-276 -76 0
-276 35 0
-276 45 0
276 -20 -54 76 -35 -45 0
-277 -131 0
-277 39 0
-277 -15 0
-277 133 0
-277 162 0
277 131 -39 15 -133 -162 0
-278 167 0
-278 158 0
-278 10 0
-278 -178 0
-278 -2 0
278 -167 -158 -10 178 2 0
-279 164 0
-279 -133 0
-279 -94 0
-279 -41 0
-279 89 0
279 -164 133 94 41 -89 0
-280 118 0
-280 109 0
-280 88 0
-280 50 0
-280 -149 0
280 -118 -109 -88 -50 149 0
276 277 278 279 280 0
-281 -153 0
-281 -72 0
-281 -68 0
-281 -123 0
-281 140 0
281 153 72 68 123 -140 0
-282 -99 0
-282 82 0
-282 114 0
-282 -128 0
-282 22 0
282 99 -82 -114 128 -22 0
-283 -172 0
-283 -105 0
-283 -130 0
-283 -59 0
-283 126 0
283 172 105 130 59 -126 0
-284 -102 0
-284 139 0
-284 -155 0
-284 -121 0
-284 -108 0
284 102 -139 155 121 108 0
-285 -38 0
-285 -62 0
-285 159 0
-285 17 0
-285 -161 0
285 38 62 -159 -17 161 0
281 282 283 284 285 0
-286 -166 0
-286 119 0
-286 7 0
-286 11 0
-286 95 0
286 166 -119 -7 -11 -95 0
-287 -65 0
-287 -158 0
-287 -138 0
-287 -100 0
-287 -148 0
287 65 158 138 100 148 0
-288 -106 0
-288 164 0
-288 -83 0
-288 177 0
-288 36 0
288 106 -164 83 -177 -36 0
-289 138 0
-289 142 0
-289 156 0
-289 6 0
-289 117 0
289 -138 -142 -156 -6 -117 0
-290 -122 0
-290 130 0
-290 74 0
-290 30 0
-290 131 0
290 122 -130 -74 -30 -131 0
286 287 288 289 290 0
-291 35 0
-291 98 0
-291 -88 0
-291 -56 0
-291 108 0
291 -35 -98 88 56 -108 0
-292 45 0
-292 -89 0
-292 -119 0
-292 -170 0
-292 -68 0
292 -45 89 119 170 68 0
-293 106 0
-293 -142 0
-293 9 0
-293 -183 0
-293 -93 0
293 -106 142 -9 183 93 0
-294 -147 0
-294 174 0
-294 -58 0
-294 121 0
-294 67 0
294 147 -174 58 -121 -67 0
-295 119 0
-295 51 0
-295 -113 0
-295 -171 0
-295 -66 0
295 -119 -51 113 171 66 0
291 292 293 294 295 0
-296 -159 0
-296 -23 0
-296 -150 0
-296 -174 0
-296 -22 0
296 159 23 150 174 22 0
-297 -178 0
-297 4 0
-297 -66 0
-297 85 0
-297 -139 0
297 178 -4 66 -85 139 0
-298 104 0
-298 166 0
-298 99 0
-298 -143 0
-298 -90 0
298 -104 -166 -99 143 90 0
-299 190 0
-299 123 0
-299 160 0
-299 -10 0
-299 -95 0
299 -190 -123 -160 10 95 0
-300 121 0
-300 131 0
-300 30 0
-300 173 0
-300 -20 0
300 -121 -131 -30 -173 20 0
296 297 298 299 300 0
-301 -100 0
-301 174 0
-301 -10 0
-301 -44 0
-301 -69 0
301 100 -174 10 44 69 0
-302 98 0
-302 -52 0
-302 131 0
-302 -66 0
-302 184 0
302 -98 52 -131 66 -184 0
-303 37 0
-303 -99 0
-303 -76 0
-303 -103 0
-303 -92 0
303 -37 99 76 103 92 0
-304 86 0
-304 155 0
-304 -40 0
-304 -172 0
-304 48 0
304 -86 -155 40 172 -48 0
-305 -169 0
-305 89 0
-305 189 0
-305 171 0
-305 107 0
305 169 -89 -189 -171 -107 0
301 302 303 304 305 0
-306 154 0
-306 38 0
-306 41 0
-306 -140 0
-306 90 0
306 -154 -38 -41 140 -90 0
-307 182 0
-307 -33 0
-307 80 0
-307 94 0
-307 187 0
307 -182 33 -80 -94 -187 0
-308 62 0
-308 18 0
-308 138 0
-308 -49 0
-308 101 0
308 -62 -18 -138 49 -101 0
-309 -84 0
-309 167 0
-309 -59 0
-309 -55 0
-309 -34 0
309 84 -167 59 55 34 0
-310 -117 0
-310 -61 0
-310 183 0
-310 -89 0
-310 -158 0
310 117 61 -183 89 158 0
306 307 308 309 310 0
-311 54 0
-311 -25 0
-311 163 0
-311 8 0
-311 -41 0
311 -54 25 -163 -8 41 0
-312 134 0
-312 142 0
-312 171 0
-312 -81 0
-312 -174 0
312 -134 -142 -171 81 174 0
-313 -84 0
-313 -90 0
-313 16 0
-313 -46 0
-313 4 0
313 84 90 -16 46 -4 0
-314 -96 0
-314 119 0
-314 116 0
-314 18 0
-314 -131 0
314 96 -119 -116 -18 131 0
-315 80 0
-315 -29 0
-315 115 0
-315 12 0
-315 157 0
315 -80 29 -115 -12 -157 0
311 312 313 314 315 0
-316 65 0
-316 35 0
-316 -184 0
-316 -16 0
-316 -44 0
316 -65 -35 184 16 44 0
-317 -33 0
-317 124 0
-317 -113 0
-317 -99 0
-317 120 0
317 33 -124 113 99 -120 0
-318 141 0
-318 38 0
-318 -34 0
-318 -149 0
-318 -55 0
318 -141 -38 34 149 55 0
-319 185 0
-319 11 0
-319 -19 0
-319 117 0
-319 42 0
319 -185 -11 19 -117 -42 0
-320 -38 0
-320 66 0
-320 -25 0
-320 187 0
-320 132 0
320 38 -66 25 -187 -132 0
316 317 318 319 320 0
-321 -37 0
-321 -40 0
-321 104 0
-321 130 0
-321 149 0
321 37 40 -104 -130 -149 0
-322 -94 0
-322 -150 0
-322 -100 0
-322 112 0
-322 155 0
322 94 150 100 -112 -155 0
-323 13 0
-323 -153 0
-323 21 0
-323 129 0
-323 70 0
323 -13 153 -21 -129 -70 0
-324 23 0
-324 74 0
-324 -152 0
-324 180 0
-324 6 0
324 -23 -74 152 -180 -6 0
-325 -13 0
-325 -37 0
-325 -152 0
-325 32 0
-325 139 0
325 13 37 152 -32 -139 0
321 322 323 324 325 0
-326 35 0
-326 -50 0
-326 169 0
-326 -43 0
-326 160 0
326 -35 50 -169 43 -160 0
-327 -53 0
-327 48 0
-327 153 0
-327 162 0
-327 -164 0
327 53 -48 -153 -162 164 0
-328 -175 0
-328 -5 0
-328 -23 0
-328 -61 0
-328 44 0
328 175 5 23 61 -44 0
-329 -30 0
-329 183 0
-329 10 0
-329 -71 0
-329 116 0
329 30 -183 -10 71 -116 0
-330 -35 0
-330 66 0
-330 -98 0
-330 -105 0
-330 -124 0
330 35 -66 98 105 124 0
326 327 328 329 330 0
-331 -39 0
-331 -96 0
-331 -158 0
-331 -63 0
-331 -20 0
331 39 96 158 63 20 0
-332 69 0
-332 -173 0
-332 137 0
-332 125 0
-332 -147 0
332 -69 173 -137 -125 147 0
-333 -50 0
-333 83 0
-333 -12 0
-333 -84 0
-333 7 0
333 50 -83 12 84 -7 0
-334 36 0
-334 146 0
-334 -30 0
-334 -128 0
-334 184 0
334 -36 -146 30 128 -184 0
-335 9 0
-335 115 0
-335 -32 0
-335 -3 0
-335 61 0
335 -9 -115 32 3 -61 0
331 332 333 334 335 0
-336 42 0
-336 13 0
-336 -51 0
-336 162 0
-336 83 0
336 -42 -13 51 -162 -83 0
-337 -62 0
-337 105 0
-337 166 0
-337 104 0
-337 124 0
337 62 -105 -166 -104 -124 0
-338 4 0
-338 -69 0
-338 111 0
-338 183 0
-338 91 0
338 -4 69 -111 -183 -91 0
-339 -127 0
-339 -100 0
-339 -9 0
-339 56 0
-339 -59 0
339 127 100 9 -56 59 0
-340 -56 0
-340 -51 0
-340 43 0
-340 -173 0
-340 121 0
340 56 51 -43 173 -121 0
336 337 338 339 340 0
-341 -181 0
-341 -155 0
-341 66 0
-341 4 0
-341 135 0
341 181 155 -66 -4 -135 0
-342 -185 0
-342 -187 0
-342 -162 0
-342 -147 0
-342 83 0
342 185 187 162 147 -83 0
-343 169 0
-343 135 0
-343 -65 0
-343 -93 0
-343 -19 0
343 -169 -135 65 93 19 0
-344 12 0
-344 97 0
-344 -116 0
-344 56 0
-344 -29 0
344 -12 -97 116 -56 29 0
-345 -168 0
-345 -178 0
-345 39 0
-345 41 0
-345 80 0
345 168 178 -39 -41 -80 0
341 342 343 344 345 0
-346 -67 0
-346 -94 0
-346 -153 0
-346 -20 0
-346 136 0
346 67 94 153 20 -136 0
-347 178 0
-347 18 0
-347 11 0
-347 144 0
-347 -59 0
347 -178 -18 -11 -144 59 0
-348 -26 0
-348 -156 0
-348 64 0
-348 114 0
-348 -115 0
348 26 156 -64 -114 115 0
-349 29 0
-349 56 0
-349 184 0
-349 50 0
-349 -163 0
349 -29 -56 -184 -50 163 0
-350 6 0
-350 -35 0
-350 81 0
-350 -85 0
-350 -169 0
350 -6 35 -81 85 169 0
346 347 348 349 350 0
-351 152 0
-351 -45 0
-351 98 0
-351 -131 0
-351 56 0
351 -152 45 -98 131 -56 0
-352 110 0
-352 -22 0
-352 -8 0
-352 -127 0
-352 42 0
352 -110 22 8 127 -42 0
-353 19 0
-353 -190 0
-353 138 0
-353 2 0
-353 -29 0
353 -19 190 -138 -2 29 0
-354 60 0
-354 25 0
-354 -84 0
-354 142 0
-354 -35 0
354 -60 -25 84 -142 35 0
-355 -129 0
-355 -88 0
-355 100 0
-355 44 0
-355 4 0
355 129 88 -100 -44 -4 0
351 352 353 354 355 0
-356 -66 0
-356 27 0
-356 -41 0
-356 -107 0
-356 8 0
356 66 -27 41 107 -8 0
-357 -69 0
-357 -100 0
-357 103 0
-357 -80 0
-357 -31 0
357 69 100 -103 80 31 0
-358 39 0
-358 -105 0
-358 -187 0
-358 -35 0
-358 -163 0
358 -39 105 187 35 163 0
-359 37 0
-359 36 0
-359 30 0
-359 148 0
-359 20 0
359 -37 -36 -30 -148 -20 0
-360 43 0
-360 -94 0
-360 -144 0
-360 95 0
-360 44 0
360 -43 94 144 -95 -44 0
356 357 358 359 360 0
-361 -169 0
-361 112 0
-361 180 0
-361 -104 0
-361 84 0
361 169 -112 -180 104 -84 0
-362 32 0
-362 -112 0
-362 175 0
-362 68 0
-362 110 0
362 -32 112 -175 -68 -110 0
-363 -26 0
-363 155 0
-363 126 0
-363 -116 0
-363 -124 0
363 26 -155 -126 116 124 0
-364 162 0
-364 114 0
-364 190 0
-364 -18 0
-364 88 0
364 -162 -114 -190 18 -88 0
-365 17 0
-365 -158 0
-365 -48 0
-365 -116 0
-365 3 0
365 -17 158 48 116 -3 0
361 362 363 364 365 0
-366 -65 0
-366 139 0
-366 -99 0
-366 -61 0
-366 -45 0
366 65 -139 99 61 45 0
-367 -85 0
-367 108 0
-367 -137 0
-367 -22 0
-367 69 0
367 85 -108 137 22 -69 0
-368 -137 0
-368 -5 0
-368 -10 0
-368 -9 0
-368 127 0
368 137 5 10 9 -127 0
-369 -41 0
-369 73 0
-369 -87 0
-369 -72 0
-369 -21 0
369 41 -73 87 72 21 0
-370 150 0
-370 -36 0
-370 49 0
-370 58 0
-370 108 0
370 -150 36 -49 -58 -108 0
366 367 368 369 370 0
-371 -150 0
-371 -136 0
-371 8 0
-371 -180 0
-371 -24 0
371 150 136 -8 180 24 0
-372 54 0
-372 7 0
-372 -68 0
-372 5 0
-372 -103 0
372 -54 -7 68 -5 103 0
-373 -6 0
-373 -79 0
-373 -46 0
-373 -134 0
-373 41 0
373 6 79 46 134 -41 0
-374 84 0
-374 151 0
-374 152 0
-374 -77 0
-374 -62 0
374 -84 -151 -152 77 62 0
-375 30 0
-375 166 0
-375 -3 0
-375 -60 0
-375 39 0
375 -30 -166 3 60 -39 0
371 372 373 374 375 0
-376 -65 0
-376 -99 0
-376 -24 0
-376 -127 0
-376 -5 0
376 65 99 24 127 5 0
-377 -7 0
-377 -164 0
-377 -23 0
-377 107 0
-377 -68 0
377 7 164 23 -107 68 0
-378 -81 0
-378 -88 0
-378 -22 0
-378 -65 0
-378 -143 0
378 81 88 22 65 143 0
-379 72 0
-379 163 0
-379 16 0
-379 -118 0
-379 -40 0
379 -72 -163 -16 118 40 0
-380 -41 0
-380 176 0
-380 166 0
-380 14 0
-380 -144 0
380 41 -176 -166 -14 144 0
376 377 378 379 380 0
-381 129 0
-381 -85 0
-381 -155 0
-381 52 0
-381 121 0
381 -129 85 155 -52 -121 0
-382 160 0
-382 111 0
-382 -169 0
-382 151 0
-382 186 0
382 -160 -111 169 -151 -186 0
-383 84 0
-383 -119 0
-383 -158 0
-383 91 0
-383 -116 0
383 -84 119 158 -91 116 0
-384 -112 0
-384 -162 0
-384 -132 0
-384 -22 0
-384 97 0
384 112 162 132 22 -97 0
-385 15 0
-385 -59 0
-385 -184 0
-385 -162 0
-385 74 0
385 -15 59 184 162 -74 0
381 382 383 384 385 0
-386 137 0
-386 123 0
-386 -122 0
-386 -152 0
-386 -10 0
386 -137 -123 122 152 10 0
-387 -130 0
-387 9 0
-387 -64 0
-387 79 0
-387 37 0
387 130 -9 64 -79 -37 0
-388 76 0
-388 98 0
-388 99 0
-388 46 0
-388 55 0
388 -76 -98 -99 -46 -55 0
-389 -89 0
-389 -46 0
-389 -125 0
-389 26 0
-389 186 0
389 89 46 125 -26 -186 0
-390 -145 0
-390 94 0
-390 96 0
-390 158 0
-390 -181 0
390 145 -94 -96 -158 181 0
386 387 388 389 390 0
-391 -170 0
-391 162 0
-391 189 0
-391 -70 0
-391 -109 0
391 170 -162 -189 70 109 0
-392 35 0
-392 -143 0
-392 -130 0
-392 117 0
-392 43 0
392 -35 143 130 -117 -43 0
-393 129 0
-393 -60 0
-393 86 0
-393 4 0
-393 49 0
393 -129 60 -86 -4 -49 0
-394 -177 0
-394 10 0
-394 -26 0
-394 110 0
-394 -84 0
394 177 -10 26 -110 84 0
-395 -4 0
-395 -92 0
-395 -18 0
-395 -1 0
-395 -179 0
395 4 92 18 1 179 0
391 392 393 394 395 0
-396 -170 0
-396 61 0
-396 -65 0
-396 189 0
-396 -13 0
396 170 -61 65 -189 13 0
-397 105 0
-397 -71 0
-397 182 0
-397 146 0
-397 -2 0
397 -105 71 -182 -146 2 0
-398 -182 0
-398 22 0
-398 -108 0
-398 180 0
-398 188 0
398 182 -22 108 -180 -188 0
-399 174 0
-399 4 0
-399 154 0
-399 97 0
-399 107 0
399 -174 -4 -154 -97 -107 0
-400 -189 0
-400 164 0
-400 174 0
-400 95 0
-400 150 0
400 189 -164 -174 -95 -150 0
396 397 398 399 400 0
-401 -157 0
-401 19 0
-401 111 0
-401 -37 0
-401 73 0
401 157 -19 -111 37 -73 0
-402 2 0
-402 -1 0
-402 181 0
-402 12 0
-402 -186 0
402 -2 1 -181 -12 186 0
-403 -182 0
-403 106 0
-403 -2 0
-403 -1 0
-403 189 0
403 182 -106 2 1 -189 0
-404 -133 0
-404 143 0
-404 37 0
-404 -84 0
-404 2 0
404 133 -143 -37 84 -2 0
-405 -188 0
-405 82 0
-405 137 0
-405 10 0
-405 -186 0
405 188 -82 -137 -10 186 0
401 402 403 404 405 0
-406 119 0
-406 -130 0
-406 -92 0
-406 134 0
-406 -131 0
406 -119 130 92 -134 131 0
-407 -26 0
-407 -143 0
-407 121 0
-407 177 0
-407 18 0
407 26 143 -121 -177 -18 0
-408 -125 0
-408 178 0
-408 128 0
-408 56 0
-408 90 0
408 125 -178 -128 -56 -90 0
-409 48 0
-409 -92 0
-409 25 0
-409 38 0
-409 42 0
409 -48 92 -25 -38 -42 0
-410 15 0
-410 150 0
-410 182 0
-410 -111 0
-410 154 0
410 -15 -150 -182 111 -154 0
406 407 408 409 410 0
-411 172 0
-411 108 0
-411 -189 0
-411 -132 0
-411 57 0
411 -172 -108 189 132 -57 0
-412 2 0
-412 167 0
-412 -100 0
-412 124 0
-412 27 0
412 -2 -167 100 -124 -27 0
-413 -151 0
-413 -96 0
-413 -81 0
-413 -59 0
-413 19 0
413 151 96 81 59 -19 0
-414 -48 0
-414 -3 0
-414 -108 0
-414 176 0
-414 -63 0
414 48 3 108 -176 63 0
-415 -102 0
-415 27 0
-415 -153 0
-415 -66 0
-415 118 0
415 102 -27 153 66 -118 0
411 412 413 414 415 0
-416 -132 0
-416 -8 0
-416 -87 0
-416 -154 0
-416 23 0
416 132 8 87 154 -23 0
-417 -158 0
-417 178 0
-417 92 0
-417 -75 0
-417 -8 0
417 158 -178 -92 75 8 0
-418 -41 0
-418 -159 0
-418 121 0
-418 -144 0
-418 -5 0
418 41 159 -121 144 5 0
-419 17 0
-419 79 0
-419 -174 0
-419 -69 0
-419 -36 0
419 -17 -79 174 69 36 0
-420 -10 0
-420 115 0
-420 -19 0
-420 93 0
-420 -100 0
420 10 -115 19 -93 100 0
416 417 418 419 420 0
-421 -136 0
-421 -150 0
-421 -73 0
-421 119 0
-421 95 0
421 136 150 73 -119 -95 0
-422 -50 0
-422 -123 0
-422 6 0
-422 -73 0
-422 -79 0
422 50 123 -6 73 79 0
-423 40 0
-423 -178 0
-423 -128 0
-423 -17 0
-423 187 0
423 -40 178 128 17 -187 0
-424 -99 0
-424 -39 0
-424 -120 0
-424 -130 0
-424 -15 0
424 99 39 120 130 15 0
-425 45 0
-425 100 0
-425 92 0
-425 143 0
-425 149 0
425 -45 -100 -92 -143 -149 0
421 422 423 424 425 0
-426 -31 0
-426 -69 0
-426 -90 0
-426 -70 0
-426 -56 0
426 31 69 90 70 56 0
-427 -25 0
-427 16 0
-427 157 0
-427 43 0
-427 67 0
427 25 -16 -157 -43 -67 0
-428 94 0
-428 -23 0
-428 -174 0
-428 67 0
-428 153 0
428 -94 23 174 -67 -153 0
-429 131 0
-429 35 0
-429 34 0
-429 -171 0
-429 -74 0
429 -131 -35 -34 171 74 0
-430 -25 0
-430 -49 0
-430 3 0
-430 64 0
-430 -29 0
430 25 49 -3 -64 29 0
426 427 428 429 430 0
